!UKS B3LYP DEF2-TZVP(-F) RIJCOSX D4 TIGHTSCF CPCM(CH2Cl2) OPT FREQ

%maxcore  62000
%PAL 
   NPROCS 4
END

# Ni (II) (tppz)2 2+
* xyz 2 1
Ni    0.000000000000      0.000000000000      0.000000000000
N     0.000000000000      0.000000000000      2.011022000000
N     0.000000000000      0.000000000000      4.702926000000
C     1.174369000000     -0.215294000000      2.643544000000
C     4.405654000000      0.000000000000     -0.110452000000
C     3.684074000000     -0.044741000000      2.200852000000
H     3.912862000000     -0.002551000000      3.257031000000
C     4.717184000000      0.037506000000      1.256291000000
C     1.110457000000     -0.410226000000      4.055057000000
N     2.063178000000     -0.158693000000      0.420033000000
C     3.673877000000     -2.840777000000      5.016475000000
N     2.771594000000     -2.148598000000      4.286727000000
C     2.376430000000     -0.715401000000      6.206438000000
H     1.842372000000      0.124782000000      6.635750000000
C     2.358048000000     -0.166101000000      1.755830000000
C     3.984234000000     -2.518433000000      6.350055000000
H     4.720227000000     -3.102434000000      6.892744000000
C     3.058410000000     -0.087292000000     -0.487867000000
C     2.135342000000     -1.099029000000      4.874665000000
C     3.321910000000     -1.436726000000      6.952325000000
H     3.536128000000     -1.159722000000      7.979882000000
H     5.746697000000      0.131732000000      1.586308000000
H     4.157356000000     -3.676508000000      4.519278000000
H     5.177830000000      0.053106000000     -0.869841000000
H     2.770621000000     -0.092357000000     -1.532215000000
C    -1.174369000000      0.215294000000      2.643544000000
C    -4.405654000000      0.000000000000     -0.110452000000
C    -3.684074000000      0.044741000000      2.200852000000
H    -3.912862000000      0.002551000000      3.257031000000
C    -4.717184000000     -0.037506000000      1.256291000000
C    -1.110457000000      0.410226000000      4.055057000000
N    -2.063178000000      0.158693000000      0.420033000000
C    -3.673877000000      2.840777000000      5.016475000000
N    -2.771594000000      2.148598000000      4.286727000000
C    -2.376430000000      0.715401000000      6.206438000000
H    -1.842372000000     -0.124782000000      6.635750000000
C    -2.358048000000      0.166101000000      1.755830000000
C    -3.984234000000      2.518433000000      6.350055000000
H    -4.720227000000      3.102434000000      6.892744000000
C    -3.058410000000      0.087292000000     -0.487867000000
C    -2.135342000000      1.099029000000      4.874665000000
C    -3.321910000000      1.436726000000      6.952325000000
H    -3.536128000000      1.159722000000      7.979882000000
H    -5.746697000000     -0.131732000000      1.586308000000
H    -4.157356000000      3.676508000000      4.519278000000
H    -5.177830000000     -0.053106000000     -0.869841000000
H    -2.770621000000      0.092357000000     -1.532215000000
N     0.000000000000      0.000000000000     -2.011022000000
N     0.000000000000      0.000000000000     -4.702926000000
C    -0.215294000000     -1.174369000000     -2.643544000000
C     0.000000000000     -4.405654000000      0.110452000000
C    -0.044741000000     -3.684074000000     -2.200852000000
H    -0.002551000000     -3.912862000000     -3.257031000000
C     0.037506000000     -4.717184000000     -1.256291000000
C    -0.410226000000     -1.110457000000     -4.055057000000
N    -0.158693000000     -2.063178000000     -0.420033000000
C    -2.840777000000     -3.673877000000     -5.016475000000
N    -2.148598000000     -2.771594000000     -4.286727000000
C    -0.715401000000     -2.376430000000     -6.206438000000
H     0.124782000000     -1.842372000000     -6.635750000000
C    -0.166101000000     -2.358048000000     -1.755830000000
C    -2.518433000000     -3.984234000000     -6.350055000000
H    -3.102434000000     -4.720227000000     -6.892744000000
C    -0.087292000000     -3.058410000000      0.487867000000
C    -1.099029000000     -2.135342000000     -4.874665000000
C    -1.436726000000     -3.321910000000     -6.952325000000
H    -1.159722000000     -3.536128000000     -7.979882000000
H     0.131732000000     -5.746697000000     -1.586308000000
H    -3.676508000000     -4.157356000000     -4.519278000000
H     0.053106000000     -5.177830000000      0.869841000000
H    -0.092357000000     -2.770621000000      1.532215000000
C     0.215294000000      1.174369000000     -2.643544000000
C     0.000000000000      4.405654000000      0.110452000000
C     0.044741000000      3.684074000000     -2.200852000000
H     0.002551000000      3.912862000000     -3.257031000000
C    -0.037506000000      4.717184000000     -1.256291000000
C     0.410226000000      1.110457000000     -4.055057000000
N     0.158693000000      2.063178000000     -0.420033000000
C     2.840777000000      3.673877000000     -5.016475000000
N     2.148598000000      2.771594000000     -4.286727000000
C     0.715401000000      2.376430000000     -6.206438000000
H    -0.124782000000      1.842372000000     -6.635750000000
C     0.166101000000      2.358048000000     -1.755830000000
C     2.518433000000      3.984234000000     -6.350055000000
H     3.102434000000      4.720227000000     -6.892744000000
C     0.087292000000      3.058410000000      0.487867000000
C     1.099029000000      2.135342000000     -4.874665000000
C     1.436726000000      3.321910000000     -6.952325000000
H     1.159722000000      3.536128000000     -7.979882000000
H    -0.131732000000      5.746697000000     -1.586308000000
H     3.676508000000      4.157356000000     -4.519278000000
H    -0.053106000000      5.177830000000      0.869841000000
H     0.092357000000      2.770621000000      1.532215000000
*


