!UKS B3LYP DEF2-TZVP(-F) RIJCOSX D4 TIGHTSCF CPCM(CH2Cl2) OPT FREQ

%maxcore  62000
%PAL 
   NPROCS 4
END

# Ni (II) (tppz)2 2+
  
* xyz 2 3
Ni    0.000000000000      0.000000000000      0.000000000000
N     0.000000000000      0.000000000000      2.022675000000
N     0.000000000000      0.000000000000      4.712268000000
C    -1.172167000000      0.227546000000      2.653816000000
C    -4.408622000000      0.000000000000     -0.095127000000
C    -3.683596000000      0.083969000000      2.213896000000
H    -3.911823000000      0.063590000000      3.270619000000
C    -4.718829000000     -0.005481000000      1.272335000000
C    -1.104881000000      0.425984000000      4.065166000000
N    -2.063651000000      0.150186000000      0.429508000000
C    -3.618275000000      2.912541000000      5.013229000000
N    -2.733523000000      2.195136000000      4.286369000000
C    -2.357844000000      0.773415000000      6.218507000000
H    -1.839208000000     -0.073458000000      6.653575000000
C    -2.356789000000      0.182621000000      1.765662000000
C    -3.927410000000      2.610596000000      6.351873000000
H    -4.648088000000      3.215222000000      6.892531000000
C    -3.061142000000      0.068196000000     -0.475206000000
C    -2.115184000000      1.138991000000      4.882086000000
C    -3.284531000000      1.521458000000      6.961635000000
H    -3.499186000000      1.259339000000      7.993005000000
H    -5.748992000000     -0.081760000000      1.604941000000
H    -4.087450000000      3.752754000000      4.509921000000
H    -5.182006000000     -0.062269000000     -0.852555000000
H    -2.775345000000      0.046475000000     -1.519919000000
C     1.172167000000     -0.227546000000      2.653816000000
C     4.408622000000      0.000000000000     -0.095127000000
C     3.683596000000     -0.083969000000      2.213896000000
H     3.911823000000     -0.063590000000      3.270619000000
C     4.718829000000      0.005481000000      1.272335000000
C     1.104881000000     -0.425984000000      4.065166000000
N     2.063651000000     -0.150186000000      0.429508000000
C     3.618275000000     -2.912541000000      5.013229000000
N     2.733523000000     -2.195136000000      4.286369000000
C     2.357844000000     -0.773415000000      6.218507000000
H     1.839208000000      0.073458000000      6.653575000000
C     2.356789000000     -0.182621000000      1.765662000000
C     3.927410000000     -2.610596000000      6.351873000000
H     4.648088000000     -3.215222000000      6.892531000000
C     3.061142000000     -0.068196000000     -0.475206000000
C     2.115184000000     -1.138991000000      4.882086000000
C     3.284531000000     -1.521458000000      6.961635000000
H     3.499186000000     -1.259339000000      7.993005000000
H     5.748992000000      0.081760000000      1.604941000000
H     4.087450000000     -3.752754000000      4.509921000000
H     5.182006000000      0.062269000000     -0.852555000000
H     2.775345000000     -0.046475000000     -1.519919000000
N     0.000000000000      0.000000000000     -2.022675000000
N     0.000000000000      0.000000000000     -4.712268000000
C     0.227546000000      1.172167000000     -2.653816000000
C     0.000000000000      4.408622000000      0.095127000000
C     0.083969000000      3.683596000000     -2.213896000000
H     0.063590000000      3.911823000000     -3.270619000000
C    -0.005481000000      4.718829000000     -1.272335000000
C     0.425984000000      1.104881000000     -4.065166000000
N     0.150186000000      2.063651000000     -0.429508000000
C     2.912541000000      3.618275000000     -5.013229000000
N     2.195136000000      2.733523000000     -4.286369000000
C     0.773415000000      2.357844000000     -6.218507000000
H    -0.073458000000      1.839208000000     -6.653575000000
C     0.182621000000      2.356789000000     -1.765662000000
C     2.610596000000      3.927410000000     -6.351873000000
H     3.215222000000      4.648088000000     -6.892531000000
C     0.068196000000      3.061142000000      0.475206000000
C     1.138991000000      2.115184000000     -4.882086000000
C     1.521458000000      3.284531000000     -6.961635000000
H     1.259339000000      3.499186000000     -7.993005000000
H    -0.081760000000      5.748992000000     -1.604941000000
H     3.752754000000      4.087450000000     -4.509921000000
H    -0.062269000000      5.182006000000      0.852555000000
H     0.046475000000      2.775345000000      1.519919000000
C    -0.227546000000     -1.172167000000     -2.653816000000
C     0.000000000000     -4.408622000000      0.095127000000
C    -0.083969000000     -3.683596000000     -2.213896000000
H    -0.063590000000     -3.911823000000     -3.270619000000
C     0.005481000000     -4.718829000000     -1.272335000000
C    -0.425984000000     -1.104881000000     -4.065166000000
N    -0.150186000000     -2.063651000000     -0.429508000000
C    -2.912541000000     -3.618275000000     -5.013229000000
N    -2.195136000000     -2.733523000000     -4.286369000000
C    -0.773415000000     -2.357844000000     -6.218507000000
H     0.073458000000     -1.839208000000     -6.653575000000
C    -0.182621000000     -2.356789000000     -1.765662000000
C    -2.610596000000     -3.927410000000     -6.351873000000
H    -3.215222000000     -4.648088000000     -6.892531000000
C    -0.068196000000     -3.061142000000      0.475206000000
C    -1.138991000000     -2.115184000000     -4.882086000000
C    -1.521458000000     -3.284531000000     -6.961635000000
H    -1.259339000000     -3.499186000000     -7.993005000000
H     0.081760000000     -5.748992000000     -1.604941000000
H    -3.752754000000     -4.087450000000     -4.509921000000
H     0.062269000000     -5.182006000000      0.852555000000
H    -0.046475000000     -2.775345000000      1.519919000000
*


